<?xml version="1.0"?>
<VTKFile type="UnstructuredGrid" version="0.1" byte_order="LittleEndian">
  <UnstructuredGrid>
    <Piece NumberOfPoints="8" NumberOfCells="6">
      <Points>
        <DataArray type="Float32" NumberOfComponents="3" format="ascii">
          0.0 0.0 0.0
          1.0 0.0 0.0
          1.0 1.0 0.0
          0.0 1.0 0.0
          0.0 0.0 1.0
          1.0 0.0 1.0
          1.0 1.0 1.0
          0.0 1.0 1.0
        </DataArray>
      </Points>
      <Cells>
        <DataArray type="Int32" Name="connectivity" format="ascii">
          0 1 2 3
          4 7 6 5
          0 4 5 1
          1 5 6 2
          2 6 7 3
          3 7 4 0
        </DataArray>
        <DataArray type="Int32" Name="offsets" format="ascii">
          4 8 12 16 20 24
        </DataArray>
        <DataArray type="UInt8" Name="types" format="ascii">
          9 9 9 9 9 9
        </DataArray>
      </Cells>
      <PointData Scalars="Temperature" Vectors="Velocity">
        <DataArray type="Float32" Name="Temperature" format="ascii">
          20.0 25.0 30.0 22.0 18.0 28.0 35.0 24.0
        </DataArray>
        <DataArray type="Float32" Name="Pressure" format="ascii">
          101.3 102.1 103.5 101.8 100.9 102.8 104.2 102.0
        </DataArray>
        <DataArray type="Float32" Name="Velocity" NumberOfComponents="3" format="ascii">
          0.1 0.0 0.0
          0.2 0.1 0.0
          0.1 0.2 0.0
          0.0 0.1 0.0
          0.1 0.0 0.1
          0.2 0.1 0.1
          0.1 0.2 0.1
          0.0 0.1 0.1
        </DataArray>
      </PointData>
      <CellData Scalars="Material">
        <DataArray type="Int32" Name="Material" format="ascii">
          1 2 1 2 1 2
        </DataArray>
        <DataArray type="Float32" Name="Stress" format="ascii">
          50.2 75.8 62.1 48.9 71.3 58.7
        </DataArray>
      </CellData>
    </Piece>
  </UnstructuredGrid>
</VTKFile>
